c Standarized MaxSat Instance
c{
c "sha1sum": "d73499f3341cb6e02f68e62b83a4d0c401620af6",
c "nvars": 60,
c "ncls": 1200,
c "total_lits": 2400,
c "nhards": 0,
c "nhard_nlits": 0,
c "nhard_len_stats":
c    { "min": 0,
c      "max": 0,
c      "ave": 0.0000,
c      "stddev": 0.0000 },
c "nsofts": 1200,
c "nsoft_nlits": 2400,
c "nsoft_len_stats":
c    { "min": 2,
c      "max": 2,
c      "ave": 2.0000,
c      "stddev": 0.0000 },
c "nsoft_wts": 1,
c "soft_wt_stats":
c    { "min": 1,
c      "max": 1,
c      "ave": 1.0000,
c      "stddev": 0.0000 }
c}
c------------------------------------------------------------
c Generated after 1 tries
c Graph with 60 nodes and 600 edges, Max edges:1770
1 1 5 0
1 -1 -5 0
1 1 6 0
1 -1 -6 0
1 1 8 0
1 -1 -8 0
1 1 17 0
1 -1 -17 0
1 1 18 0
1 -1 -18 0
1 1 19 0
1 -1 -19 0
1 1 21 0
1 -1 -21 0
1 1 34 0
1 -1 -34 0
1 1 35 0
1 -1 -35 0
1 1 36 0
1 -1 -36 0
1 1 46 0
1 -1 -46 0
1 1 50 0
1 -1 -50 0
1 1 53 0
1 -1 -53 0
1 1 55 0
1 -1 -55 0
1 1 57 0
1 -1 -57 0
1 1 59 0
1 -1 -59 0
1 1 60 0
1 -1 -60 0
1 2 5 0
1 -2 -5 0
1 2 6 0
1 -2 -6 0
1 2 9 0
1 -2 -9 0
1 2 12 0
1 -2 -12 0
1 2 15 0
1 -2 -15 0
1 2 16 0
1 -2 -16 0
1 2 20 0
1 -2 -20 0
1 2 22 0
1 -2 -22 0
1 2 28 0
1 -2 -28 0
1 2 30 0
1 -2 -30 0
1 2 32 0
1 -2 -32 0
1 2 33 0
1 -2 -33 0
1 2 39 0
1 -2 -39 0
1 2 46 0
1 -2 -46 0
1 2 47 0
1 -2 -47 0
1 3 10 0
1 -3 -10 0
1 3 14 0
1 -3 -14 0
1 3 15 0
1 -3 -15 0
1 3 16 0
1 -3 -16 0
1 3 17 0
1 -3 -17 0
1 3 18 0
1 -3 -18 0
1 3 23 0
1 -3 -23 0
1 3 25 0
1 -3 -25 0
1 3 27 0
1 -3 -27 0
1 3 29 0
1 -3 -29 0
1 3 32 0
1 -3 -32 0
1 3 35 0
1 -3 -35 0
1 3 42 0
1 -3 -42 0
1 3 43 0
1 -3 -43 0
1 3 44 0
1 -3 -44 0
1 3 45 0
1 -3 -45 0
1 3 46 0
1 -3 -46 0
1 3 48 0
1 -3 -48 0
1 3 52 0
1 -3 -52 0
1 3 53 0
1 -3 -53 0
1 3 55 0
1 -3 -55 0
1 3 56 0
1 -3 -56 0
1 3 57 0
1 -3 -57 0
1 3 59 0
1 -3 -59 0
1 4 8 0
1 -4 -8 0
1 4 11 0
1 -4 -11 0
1 4 13 0
1 -4 -13 0
1 4 15 0
1 -4 -15 0
1 4 16 0
1 -4 -16 0
1 4 20 0
1 -4 -20 0
1 4 21 0
1 -4 -21 0
1 4 22 0
1 -4 -22 0
1 4 23 0
1 -4 -23 0
1 4 25 0
1 -4 -25 0
1 4 35 0
1 -4 -35 0
1 4 36 0
1 -4 -36 0
1 4 41 0
1 -4 -41 0
1 4 43 0
1 -4 -43 0
1 4 44 0
1 -4 -44 0
1 4 46 0
1 -4 -46 0
1 4 51 0
1 -4 -51 0
1 4 53 0
1 -4 -53 0
1 4 55 0
1 -4 -55 0
1 4 56 0
1 -4 -56 0
1 4 59 0
1 -4 -59 0
1 4 60 0
1 -4 -60 0
1 5 7 0
1 -5 -7 0
1 5 9 0
1 -5 -9 0
1 5 10 0
1 -5 -10 0
1 5 15 0
1 -5 -15 0
1 5 16 0
1 -5 -16 0
1 5 18 0
1 -5 -18 0
1 5 19 0
1 -5 -19 0
1 5 21 0
1 -5 -21 0
1 5 22 0
1 -5 -22 0
1 5 25 0
1 -5 -25 0
1 5 30 0
1 -5 -30 0
1 5 32 0
1 -5 -32 0
1 5 36 0
1 -5 -36 0
1 5 38 0
1 -5 -38 0
1 5 43 0
1 -5 -43 0
1 5 46 0
1 -5 -46 0
1 5 51 0
1 -5 -51 0
1 5 52 0
1 -5 -52 0
1 5 53 0
1 -5 -53 0
1 5 60 0
1 -5 -60 0
1 6 16 0
1 -6 -16 0
1 6 21 0
1 -6 -21 0
1 6 24 0
1 -6 -24 0
1 6 31 0
1 -6 -31 0
1 6 35 0
1 -6 -35 0
1 6 36 0
1 -6 -36 0
1 6 37 0
1 -6 -37 0
1 6 38 0
1 -6 -38 0
1 6 40 0
1 -6 -40 0
1 6 41 0
1 -6 -41 0
1 6 44 0
1 -6 -44 0
1 6 50 0
1 -6 -50 0
1 6 53 0
1 -6 -53 0
1 7 14 0
1 -7 -14 0
1 7 16 0
1 -7 -16 0
1 7 21 0
1 -7 -21 0
1 7 24 0
1 -7 -24 0
1 7 25 0
1 -7 -25 0
1 7 28 0
1 -7 -28 0
1 7 31 0
1 -7 -31 0
1 7 35 0
1 -7 -35 0
1 7 39 0
1 -7 -39 0
1 7 46 0
1 -7 -46 0
1 7 50 0
1 -7 -50 0
1 7 52 0
1 -7 -52 0
1 7 55 0
1 -7 -55 0
1 7 58 0
1 -7 -58 0
1 8 9 0
1 -8 -9 0
1 8 12 0
1 -8 -12 0
1 8 16 0
1 -8 -16 0
1 8 17 0
1 -8 -17 0
1 8 21 0
1 -8 -21 0
1 8 22 0
1 -8 -22 0
1 8 25 0
1 -8 -25 0
1 8 26 0
1 -8 -26 0
1 8 30 0
1 -8 -30 0
1 8 31 0
1 -8 -31 0
1 8 37 0
1 -8 -37 0
1 8 39 0
1 -8 -39 0
1 8 42 0
1 -8 -42 0
1 8 44 0
1 -8 -44 0
1 8 45 0
1 -8 -45 0
1 8 46 0
1 -8 -46 0
1 8 47 0
1 -8 -47 0
1 8 49 0
1 -8 -49 0
1 8 50 0
1 -8 -50 0
1 8 52 0
1 -8 -52 0
1 8 53 0
1 -8 -53 0
1 8 56 0
1 -8 -56 0
1 8 57 0
1 -8 -57 0
1 8 60 0
1 -8 -60 0
1 9 10 0
1 -9 -10 0
1 9 12 0
1 -9 -12 0
1 9 17 0
1 -9 -17 0
1 9 23 0
1 -9 -23 0
1 9 25 0
1 -9 -25 0
1 9 26 0
1 -9 -26 0
1 9 29 0
1 -9 -29 0
1 9 31 0
1 -9 -31 0
1 9 32 0
1 -9 -32 0
1 9 34 0
1 -9 -34 0
1 9 39 0
1 -9 -39 0
1 9 42 0
1 -9 -42 0
1 9 43 0
1 -9 -43 0
1 9 46 0
1 -9 -46 0
1 9 47 0
1 -9 -47 0
1 9 59 0
1 -9 -59 0
1 10 12 0
1 -10 -12 0
1 10 13 0
1 -10 -13 0
1 10 15 0
1 -10 -15 0
1 10 22 0
1 -10 -22 0
1 10 25 0
1 -10 -25 0
1 10 28 0
1 -10 -28 0
1 10 32 0
1 -10 -32 0
1 10 43 0
1 -10 -43 0
1 10 49 0
1 -10 -49 0
1 10 53 0
1 -10 -53 0
1 10 56 0
1 -10 -56 0
1 11 16 0
1 -11 -16 0
1 11 26 0
1 -11 -26 0
1 11 29 0
1 -11 -29 0
1 11 30 0
1 -11 -30 0
1 11 33 0
1 -11 -33 0
1 11 34 0
1 -11 -34 0
1 11 36 0
1 -11 -36 0
1 11 38 0
1 -11 -38 0
1 11 39 0
1 -11 -39 0
1 11 44 0
1 -11 -44 0
1 11 46 0
1 -11 -46 0
1 11 50 0
1 -11 -50 0
1 11 55 0
1 -11 -55 0
1 11 58 0
1 -11 -58 0
1 11 60 0
1 -11 -60 0
1 12 18 0
1 -12 -18 0
1 12 26 0
1 -12 -26 0
1 12 27 0
1 -12 -27 0
1 12 31 0
1 -12 -31 0
1 12 32 0
1 -12 -32 0
1 12 38 0
1 -12 -38 0
1 12 43 0
1 -12 -43 0
1 12 44 0
1 -12 -44 0
1 12 47 0
1 -12 -47 0
1 12 50 0
1 -12 -50 0
1 12 53 0
1 -12 -53 0
1 12 60 0
1 -12 -60 0
1 13 15 0
1 -13 -15 0
1 13 19 0
1 -13 -19 0
1 13 22 0
1 -13 -22 0
1 13 28 0
1 -13 -28 0
1 13 29 0
1 -13 -29 0
1 13 30 0
1 -13 -30 0
1 13 31 0
1 -13 -31 0
1 13 32 0
1 -13 -32 0
1 13 34 0
1 -13 -34 0
1 13 38 0
1 -13 -38 0
1 13 40 0
1 -13 -40 0
1 13 41 0
1 -13 -41 0
1 13 42 0
1 -13 -42 0
1 13 43 0
1 -13 -43 0
1 13 53 0
1 -13 -53 0
1 14 15 0
1 -14 -15 0
1 14 16 0
1 -14 -16 0
1 14 20 0
1 -14 -20 0
1 14 21 0
1 -14 -21 0
1 14 23 0
1 -14 -23 0
1 14 26 0
1 -14 -26 0
1 14 28 0
1 -14 -28 0
1 14 29 0
1 -14 -29 0
1 14 33 0
1 -14 -33 0
1 14 34 0
1 -14 -34 0
1 14 36 0
1 -14 -36 0
1 14 40 0
1 -14 -40 0
1 14 42 0
1 -14 -42 0
1 14 43 0
1 -14 -43 0
1 14 44 0
1 -14 -44 0
1 14 46 0
1 -14 -46 0
1 14 55 0
1 -14 -55 0
1 14 60 0
1 -14 -60 0
1 15 23 0
1 -15 -23 0
1 15 30 0
1 -15 -30 0
1 15 33 0
1 -15 -33 0
1 15 34 0
1 -15 -34 0
1 15 46 0
1 -15 -46 0
1 15 48 0
1 -15 -48 0
1 15 52 0
1 -15 -52 0
1 15 54 0
1 -15 -54 0
1 15 56 0
1 -15 -56 0
1 15 57 0
1 -15 -57 0
1 15 59 0
1 -15 -59 0
1 16 19 0
1 -16 -19 0
1 16 23 0
1 -16 -23 0
1 16 24 0
1 -16 -24 0
1 16 26 0
1 -16 -26 0
1 16 31 0
1 -16 -31 0
1 16 34 0
1 -16 -34 0
1 16 35 0
1 -16 -35 0
1 16 36 0
1 -16 -36 0
1 16 37 0
1 -16 -37 0
1 16 39 0
1 -16 -39 0
1 16 41 0
1 -16 -41 0
1 16 46 0
1 -16 -46 0
1 16 49 0
1 -16 -49 0
1 16 54 0
1 -16 -54 0
1 16 55 0
1 -16 -55 0
1 16 58 0
1 -16 -58 0
1 16 60 0
1 -16 -60 0
1 17 18 0
1 -17 -18 0
1 17 20 0
1 -17 -20 0
1 17 21 0
1 -17 -21 0
1 17 23 0
1 -17 -23 0
1 17 26 0
1 -17 -26 0
1 17 28 0
1 -17 -28 0
1 17 30 0
1 -17 -30 0
1 17 32 0
1 -17 -32 0
1 17 33 0
1 -17 -33 0
1 17 35 0
1 -17 -35 0
1 17 36 0
1 -17 -36 0
1 17 39 0
1 -17 -39 0
1 17 42 0
1 -17 -42 0
1 17 44 0
1 -17 -44 0
1 17 45 0
1 -17 -45 0
1 17 52 0
1 -17 -52 0
1 17 53 0
1 -17 -53 0
1 17 60 0
1 -17 -60 0
1 18 21 0
1 -18 -21 0
1 18 25 0
1 -18 -25 0
1 18 28 0
1 -18 -28 0
1 18 30 0
1 -18 -30 0
1 18 33 0
1 -18 -33 0
1 18 35 0
1 -18 -35 0
1 18 36 0
1 -18 -36 0
1 18 38 0
1 -18 -38 0
1 18 40 0
1 -18 -40 0
1 18 41 0
1 -18 -41 0
1 18 45 0
1 -18 -45 0
1 18 51 0
1 -18 -51 0
1 18 52 0
1 -18 -52 0
1 18 53 0
1 -18 -53 0
1 18 55 0
1 -18 -55 0
1 18 60 0
1 -18 -60 0
1 19 23 0
1 -19 -23 0
1 19 24 0
1 -19 -24 0
1 19 27 0
1 -19 -27 0
1 19 28 0
1 -19 -28 0
1 19 34 0
1 -19 -34 0
1 19 39 0
1 -19 -39 0
1 19 40 0
1 -19 -40 0
1 19 42 0
1 -19 -42 0
1 19 43 0
1 -19 -43 0
1 19 45 0
1 -19 -45 0
1 19 49 0
1 -19 -49 0
1 19 51 0
1 -19 -51 0
1 19 54 0
1 -19 -54 0
1 19 56 0
1 -19 -56 0
1 19 58 0
1 -19 -58 0
1 20 22 0
1 -20 -22 0
1 20 26 0
1 -20 -26 0
1 20 29 0
1 -20 -29 0
1 20 30 0
1 -20 -30 0
1 20 31 0
1 -20 -31 0
1 20 33 0
1 -20 -33 0
1 20 35 0
1 -20 -35 0
1 20 44 0
1 -20 -44 0
1 20 45 0
1 -20 -45 0
1 20 47 0
1 -20 -47 0
1 20 50 0
1 -20 -50 0
1 20 51 0
1 -20 -51 0
1 20 54 0
1 -20 -54 0
1 20 56 0
1 -20 -56 0
1 20 58 0
1 -20 -58 0
1 21 22 0
1 -21 -22 0
1 21 23 0
1 -21 -23 0
1 21 24 0
1 -21 -24 0
1 21 25 0
1 -21 -25 0
1 21 26 0
1 -21 -26 0
1 21 28 0
1 -21 -28 0
1 21 30 0
1 -21 -30 0
1 21 33 0
1 -21 -33 0
1 21 40 0
1 -21 -40 0
1 21 41 0
1 -21 -41 0
1 21 45 0
1 -21 -45 0
1 21 49 0
1 -21 -49 0
1 21 51 0
1 -21 -51 0
1 21 56 0
1 -21 -56 0
1 22 26 0
1 -22 -26 0
1 22 31 0
1 -22 -31 0
1 22 34 0
1 -22 -34 0
1 22 35 0
1 -22 -35 0
1 22 36 0
1 -22 -36 0
1 22 42 0
1 -22 -42 0
1 22 44 0
1 -22 -44 0
1 22 46 0
1 -22 -46 0
1 22 47 0
1 -22 -47 0
1 22 50 0
1 -22 -50 0
1 22 51 0
1 -22 -51 0
1 22 53 0
1 -22 -53 0
1 22 55 0
1 -22 -55 0
1 22 57 0
1 -22 -57 0
1 22 58 0
1 -22 -58 0
1 22 59 0
1 -22 -59 0
1 23 27 0
1 -23 -27 0
1 23 28 0
1 -23 -28 0
1 23 29 0
1 -23 -29 0
1 23 30 0
1 -23 -30 0
1 23 32 0
1 -23 -32 0
1 23 34 0
1 -23 -34 0
1 23 35 0
1 -23 -35 0
1 23 36 0
1 -23 -36 0
1 23 38 0
1 -23 -38 0
1 23 41 0
1 -23 -41 0
1 23 48 0
1 -23 -48 0
1 23 49 0
1 -23 -49 0
1 23 52 0
1 -23 -52 0
1 24 28 0
1 -24 -28 0
1 24 30 0
1 -24 -30 0
1 24 39 0
1 -24 -39 0
1 24 40 0
1 -24 -40 0
1 24 44 0
1 -24 -44 0
1 24 46 0
1 -24 -46 0
1 24 47 0
1 -24 -47 0
1 24 48 0
1 -24 -48 0
1 24 50 0
1 -24 -50 0
1 24 51 0
1 -24 -51 0
1 24 52 0
1 -24 -52 0
1 24 53 0
1 -24 -53 0
1 24 56 0
1 -24 -56 0
1 24 57 0
1 -24 -57 0
1 24 60 0
1 -24 -60 0
1 25 33 0
1 -25 -33 0
1 25 38 0
1 -25 -38 0
1 25 42 0
1 -25 -42 0
1 25 43 0
1 -25 -43 0
1 25 53 0
1 -25 -53 0
1 25 54 0
1 -25 -54 0
1 25 58 0
1 -25 -58 0
1 26 30 0
1 -26 -30 0
1 26 31 0
1 -26 -31 0
1 26 32 0
1 -26 -32 0
1 26 34 0
1 -26 -34 0
1 26 37 0
1 -26 -37 0
1 26 38 0
1 -26 -38 0
1 26 40 0
1 -26 -40 0
1 26 41 0
1 -26 -41 0
1 26 46 0
1 -26 -46 0
1 26 48 0
1 -26 -48 0
1 26 53 0
1 -26 -53 0
1 26 54 0
1 -26 -54 0
1 27 28 0
1 -27 -28 0
1 27 30 0
1 -27 -30 0
1 27 31 0
1 -27 -31 0
1 27 34 0
1 -27 -34 0
1 27 36 0
1 -27 -36 0
1 27 43 0
1 -27 -43 0
1 27 51 0
1 -27 -51 0
1 27 52 0
1 -27 -52 0
1 27 56 0
1 -27 -56 0
1 27 58 0
1 -27 -58 0
1 27 59 0
1 -27 -59 0
1 27 60 0
1 -27 -60 0
1 28 31 0
1 -28 -31 0
1 28 33 0
1 -28 -33 0
1 28 36 0
1 -28 -36 0
1 28 38 0
1 -28 -38 0
1 28 39 0
1 -28 -39 0
1 28 42 0
1 -28 -42 0
1 28 46 0
1 -28 -46 0
1 28 47 0
1 -28 -47 0
1 28 50 0
1 -28 -50 0
1 28 57 0
1 -28 -57 0
1 28 58 0
1 -28 -58 0
1 28 60 0
1 -28 -60 0
1 29 30 0
1 -29 -30 0
1 29 32 0
1 -29 -32 0
1 29 33 0
1 -29 -33 0
1 29 37 0
1 -29 -37 0
1 29 39 0
1 -29 -39 0
1 29 42 0
1 -29 -42 0
1 29 46 0
1 -29 -46 0
1 29 47 0
1 -29 -47 0
1 29 48 0
1 -29 -48 0
1 29 53 0
1 -29 -53 0
1 29 54 0
1 -29 -54 0
1 29 59 0
1 -29 -59 0
1 30 32 0
1 -30 -32 0
1 30 33 0
1 -30 -33 0
1 30 34 0
1 -30 -34 0
1 30 35 0
1 -30 -35 0
1 30 38 0
1 -30 -38 0
1 30 39 0
1 -30 -39 0
1 30 40 0
1 -30 -40 0
1 30 41 0
1 -30 -41 0
1 30 43 0
1 -30 -43 0
1 30 45 0
1 -30 -45 0
1 30 48 0
1 -30 -48 0
1 30 50 0
1 -30 -50 0
1 30 51 0
1 -30 -51 0
1 30 54 0
1 -30 -54 0
1 30 59 0
1 -30 -59 0
1 31 32 0
1 -31 -32 0
1 31 35 0
1 -31 -35 0
1 31 36 0
1 -31 -36 0
1 31 46 0
1 -31 -46 0
1 31 48 0
1 -31 -48 0
1 31 50 0
1 -31 -50 0
1 31 51 0
1 -31 -51 0
1 31 53 0
1 -31 -53 0
1 31 55 0
1 -31 -55 0
1 31 56 0
1 -31 -56 0
1 31 57 0
1 -31 -57 0
1 31 58 0
1 -31 -58 0
1 32 37 0
1 -32 -37 0
1 32 38 0
1 -32 -38 0
1 32 39 0
1 -32 -39 0
1 32 41 0
1 -32 -41 0
1 32 43 0
1 -32 -43 0
1 32 46 0
1 -32 -46 0
1 32 47 0
1 -32 -47 0
1 32 48 0
1 -32 -48 0
1 32 50 0
1 -32 -50 0
1 32 52 0
1 -32 -52 0
1 33 37 0
1 -33 -37 0
1 33 40 0
1 -33 -40 0
1 33 41 0
1 -33 -41 0
1 33 44 0
1 -33 -44 0
1 33 53 0
1 -33 -53 0
1 33 55 0
1 -33 -55 0
1 33 56 0
1 -33 -56 0
1 33 58 0
1 -33 -58 0
1 33 59 0
1 -33 -59 0
1 34 35 0
1 -34 -35 0
1 34 37 0
1 -34 -37 0
1 34 38 0
1 -34 -38 0
1 34 43 0
1 -34 -43 0
1 34 50 0
1 -34 -50 0
1 34 52 0
1 -34 -52 0
1 34 56 0
1 -34 -56 0
1 34 60 0
1 -34 -60 0
1 35 38 0
1 -35 -38 0
1 35 44 0
1 -35 -44 0
1 35 50 0
1 -35 -50 0
1 35 51 0
1 -35 -51 0
1 35 52 0
1 -35 -52 0
1 35 59 0
1 -35 -59 0
1 36 46 0
1 -36 -46 0
1 36 48 0
1 -36 -48 0
1 36 49 0
1 -36 -49 0
1 36 54 0
1 -36 -54 0
1 36 55 0
1 -36 -55 0
1 36 56 0
1 -36 -56 0
1 36 58 0
1 -36 -58 0
1 37 39 0
1 -37 -39 0
1 37 40 0
1 -37 -40 0
1 37 41 0
1 -37 -41 0
1 37 47 0
1 -37 -47 0
1 37 48 0
1 -37 -48 0
1 37 50 0
1 -37 -50 0
1 37 51 0
1 -37 -51 0
1 37 55 0
1 -37 -55 0
1 37 58 0
1 -37 -58 0
1 37 59 0
1 -37 -59 0
1 38 40 0
1 -38 -40 0
1 38 46 0
1 -38 -46 0
1 38 49 0
1 -38 -49 0
1 38 50 0
1 -38 -50 0
1 38 60 0
1 -38 -60 0
1 39 40 0
1 -39 -40 0
1 39 46 0
1 -39 -46 0
1 39 51 0
1 -39 -51 0
1 39 52 0
1 -39 -52 0
1 39 53 0
1 -39 -53 0
1 39 54 0
1 -39 -54 0
1 39 59 0
1 -39 -59 0
1 40 42 0
1 -40 -42 0
1 40 43 0
1 -40 -43 0
1 40 46 0
1 -40 -46 0
1 40 52 0
1 -40 -52 0
1 40 54 0
1 -40 -54 0
1 40 57 0
1 -40 -57 0
1 41 43 0
1 -41 -43 0
1 41 45 0
1 -41 -45 0
1 41 47 0
1 -41 -47 0
1 41 48 0
1 -41 -48 0
1 41 50 0
1 -41 -50 0
1 41 52 0
1 -41 -52 0
1 41 53 0
1 -41 -53 0
1 41 54 0
1 -41 -54 0
1 41 58 0
1 -41 -58 0
1 41 59 0
1 -41 -59 0
1 42 44 0
1 -42 -44 0
1 42 45 0
1 -42 -45 0
1 42 50 0
1 -42 -50 0
1 42 52 0
1 -42 -52 0
1 42 54 0
1 -42 -54 0
1 42 55 0
1 -42 -55 0
1 42 58 0
1 -42 -58 0
1 42 59 0
1 -42 -59 0
1 43 44 0
1 -43 -44 0
1 43 46 0
1 -43 -46 0
1 43 50 0
1 -43 -50 0
1 43 51 0
1 -43 -51 0
1 43 53 0
1 -43 -53 0
1 43 55 0
1 -43 -55 0
1 43 57 0
1 -43 -57 0
1 43 58 0
1 -43 -58 0
1 43 59 0
1 -43 -59 0
1 44 47 0
1 -44 -47 0
1 44 48 0
1 -44 -48 0
1 44 50 0
1 -44 -50 0
1 44 51 0
1 -44 -51 0
1 44 53 0
1 -44 -53 0
1 44 59 0
1 -44 -59 0
1 45 54 0
1 -45 -54 0
1 45 58 0
1 -45 -58 0
1 45 59 0
1 -45 -59 0
1 45 60 0
1 -45 -60 0
1 46 48 0
1 -46 -48 0
1 46 49 0
1 -46 -49 0
1 46 55 0
1 -46 -55 0
1 46 57 0
1 -46 -57 0
1 46 60 0
1 -46 -60 0
1 47 49 0
1 -47 -49 0
1 47 55 0
1 -47 -55 0
1 47 56 0
1 -47 -56 0
1 48 49 0
1 -48 -49 0
1 48 54 0
1 -48 -54 0
1 48 59 0
1 -48 -59 0
1 48 60 0
1 -48 -60 0
1 50 53 0
1 -50 -53 0
1 51 54 0
1 -51 -54 0
1 51 55 0
1 -51 -55 0
1 51 57 0
1 -51 -57 0
1 51 58 0
1 -51 -58 0
1 52 57 0
1 -52 -57 0
1 52 60 0
1 -52 -60 0
1 53 54 0
1 -53 -54 0
1 53 57 0
1 -53 -57 0
1 53 58 0
1 -53 -58 0
1 53 59 0
1 -53 -59 0
1 53 60 0
1 -53 -60 0
1 54 55 0
1 -54 -55 0
1 57 59 0
1 -57 -59 0
1 58 60 0
1 -58 -60 0
